======================================================================
CP-SAT v2: AND-product encoding (no XOR d-vars)
======================================================================
Building warm start...
  Best greedy: 16/29

Building model...
  841 x + 10962 z = 11803 vars, 378 pair constraints

Solving (3500s, 8 workers, AND encoding)...

Starting CP-SAT solver v9.15.6755
Parameters: max_time_in_seconds: 3500 log_search_progress: true search_branching: AUTOMATIC_SEARCH num_workers: 8

Initial satisfaction model '': (model_fingerprint: 0x116ce5d37422eb72)
#Variables: 11'803 (11'746 primary variables)
  - 11'803 Booleans in [0,1]
#kBoolAnd: 10'984 (#enforced: 10'984) (#literals: 32'930)
#kBoolOr: 10'962 (#enforced: 10'962) (#literals: 21'924)
#kLinear1: 29
#kLinearN: 406 (#terms: 33'698)

Starting presolve at 0.01s
The solution hint is incomplete: 841 out of 11803 non fixed variables hinted.
  2.92e-03s  0.00e+00d  [DetectDominanceRelations] 
  2.20e-02s  0.00e+00d  [PresolveToFixPoint] #num_loops=2 #num_dual_strengthening=1 
  2.70e-04s  0.00e+00d  [ExtractEncodingFromLinear] 
  6.83e-04s  0.00e+00d  [DetectDuplicateColumns] 
  3.20e-04s  0.00e+00d  [DetectDuplicateConstraints] 
[Symmetry] Graph for symmetry has 57'681 nodes and 144'986 arcs.
[Symmetry] Symmetry computation done. time: 0.0633052 dtime: 0.0902528
[Symmetry] #generators: 27, average support size: 866
[Symmetry] 406 orbits on 11422 variables with sizes: 56,56,56,56,56,56,56,56,56,56,...
[Symmetry] Found orbitope of size 406 x 27
[SAT presolve] num removable Booleans: 0 / 11'774
[SAT presolve] num trivial clauses: 0
[SAT presolve] [0s] clauses:32'908 literals:76'778 vars:11'774 one_side_vars:0 simple_definition:10'962 singleton_clauses:0
[SAT presolve] [0.00140653s] clauses:32'908 literals:76'756 vars:11'774 one_side_vars:0 simple_definition:10'962 singleton_clauses:0
[SAT presolve] [0.0016814s] clauses:32'908 literals:76'756 vars:11'774 one_side_vars:0 simple_definition:10'962 singleton_clauses:0
  4.12e-04s  0.00e+00d  [DetectDuplicateConstraintsWithDifferentEnforcements] 
  3.99e-02s  5.38e-02d  [Probe] #probed=23'548 #equiv=196 #new_binary_clauses=487 
  1.25e-02s  1.66e-02d  [MaxClique] Merged 21'968 constraints with 43'936 literals into 21'946 constraints with 43'892 literals
  3.29e-03s  0.00e+00d  [DetectDominanceRelations] 
  1.60e-02s  0.00e+00d  [PresolveToFixPoint] #num_loops=1 #num_dual_strengthening=1 
  5.65e-03s  0.00e+00d  [ProcessAtMostOneAndLinear] 
  5.37e-04s  0.00e+00d  [DetectDuplicateConstraints] 
  5.12e-04s  0.00e+00d  [DetectDuplicateConstraintsWithDifferentEnforcements] 
  1.26e-03s  1.23e-04d  [DetectDominatedLinearConstraints] #relevant_constraints=406 #num_inclusions=378 #num_redundant=378 
  2.07e-04s  0.00e+00d  [DetectDifferentVariables] 
  5.35e-03s  5.91e-04d  [ProcessSetPPC] #relevant_constraints=32'900 #num_inclusions=21'532 
  3.63e-03s  1.09e-03d  [TransformClausesToExactlyOne] #num_amos=21'728 #num_clauses=10'766 #num_checked=10'766 
  2.23e-04s  0.00e+00d  [DetectEncodedComplexDomains] 
  4.31e-04s  4.84e-04d  [FindAlmostIdenticalLinearConstraints] #num_tested_pairs=1'688 
  6.66e-03s  1.43e-02d  [FindBigAtMostOneAndLinearOverlap] 
  1.79e-03s  2.83e-03d  [FindBigVerticalLinearOverlap] #blocks=19 #saved_nz=9'196 
  2.13e-04s  6.41e-05d  [FindBigHorizontalLinearOverlap] #linears=406 
  1.39e-03s  1.61e-04d  [MergeClauses] 
  2.85e-03s  0.00e+00d  [DetectDominanceRelations] 
  8.57e-03s  0.00e+00d  [PresolveToFixPoint] #num_loops=1 #num_dual_strengthening=1 
  2.89e-03s  0.00e+00d  [DetectDominanceRelations] 
  8.54e-03s  0.00e+00d  [PresolveToFixPoint] #num_loops=1 #num_dual_strengthening=1 
  4.47e-04s  0.00e+00d  [DetectDuplicateColumns] 
  3.33e-04s  0.00e+00d  [DetectDuplicateConstraints] 
[Symmetry] Graph for symmetry has 47'171 nodes and 112'764 arcs.
[Symmetry] Symmetry computation done. time: 0.0332331 dtime: 0.0569127
[Symmetry] #generators: 27, average support size: 812
[Symmetry] 406 orbits on 11368 variables with sizes: 28,28,28,28,28,28,28,28,28,28,...
[Symmetry] Found orbitope of size 406 x 28
[SAT presolve] num removable Booleans: 0 / 11'578
[SAT presolve] num trivial clauses: 0
[SAT presolve] [0s] clauses:32'494 literals:75'754 vars:11'578 one_side_vars:0 simple_definition:10'766 singleton_clauses:0
[SAT presolve] [0.00139301s] clauses:32'494 literals:75'754 vars:11'578 one_side_vars:0 simple_definition:10'766 singleton_clauses:0
[SAT presolve] [0.0016605s] clauses:32'494 literals:75'754 vars:11'578 one_side_vars:0 simple_definition:10'766 singleton_clauses:0
  5.48e-04s  0.00e+00d  [DetectDuplicateConstraintsWithDifferentEnforcements] 
  3.27e-02s  2.98e-02d  [Probe] #probed=23'548 #new_binary_clauses=1'664 
  1.26e-02s  1.86e-02d  [MaxClique] 
  3.56e-03s  0.00e+00d  [DetectDominanceRelations] 
  1.45e-02s  0.00e+00d  [PresolveToFixPoint] #num_loops=1 #num_dual_strengthening=1 
  3.02e-03s  0.00e+00d  [ProcessAtMostOneAndLinear] 
  9.54e-04s  0.00e+00d  [DetectDuplicateConstraints] 
  7.94e-04s  0.00e+00d  [DetectDuplicateConstraintsWithDifferentEnforcements] 
  6.22e-04s  4.07e-05d  [DetectDominatedLinearConstraints] #relevant_constraints=406 #num_inclusions=36 #num_redundant=36 
  3.27e-04s  0.00e+00d  [DetectDifferentVariables] 
  6.70e-03s  5.69e-04d  [ProcessSetPPC] #relevant_constraints=32'900 #num_inclusions=21'532 
  4.75e-03s  1.09e-03d  [TransformClausesToExactlyOne] #num_amos=21'728 #num_clauses=10'766 #num_checked=10'766 
  5.82e-04s  0.00e+00d  [DetectEncodedComplexDomains] 
  3.89e-04s  1.28e-05d  [FindAlmostIdenticalLinearConstraints] #num_tested_pairs=88 
  4.12e-03s  4.87e-03d  [FindBigAtMostOneAndLinearOverlap] 
  1.18e-03s  2.17e-03d  [FindBigVerticalLinearOverlap] 
  3.05e-04s  5.89e-05d  [FindBigHorizontalLinearOverlap] #linears=406 
  1.60e-03s  1.61e-04d  [MergeClauses] 
  3.09e-03s  0.00e+00d  [DetectDominanceRelations] 
  9.02e-03s  0.00e+00d  [PresolveToFixPoint] #num_loops=1 #num_dual_strengthening=1 
  3.06e-03s  0.00e+00d  [DetectDominanceRelations] 
  8.93e-03s  0.00e+00d  [PresolveToFixPoint] #num_loops=1 #num_dual_strengthening=1 
  5.31e-04s  0.00e+00d  [DetectDuplicateColumns] 
  5.47e-04s  0.00e+00d  [DetectDuplicateConstraints] 
[Symmetry] Graph for symmetry has 46'131 nodes and 110'684 arcs.
[Symmetry] Symmetry computation done. time: 0.037655 dtime: 0.0688787
[Symmetry] #generators: 27, average support size: 866
[Symmetry] 406 orbits on 11422 variables with sizes: 56,56,56,56,56,56,56,56,56,56,...
[Symmetry] Found orbitope of size 406 x 27
[SAT presolve] num removable Booleans: 0 / 11'578
[SAT presolve] num trivial clauses: 0
[SAT presolve] [0s] clauses:32'494 literals:75'754 vars:11'578 one_side_vars:0 simple_definition:10'766 singleton_clauses:0
[SAT presolve] [0.00152084s] clauses:32'494 literals:75'754 vars:11'578 one_side_vars:0 simple_definition:10'766 singleton_clauses:0
[SAT presolve] [0.00179818s] clauses:32'494 literals:75'754 vars:11'578 one_side_vars:0 simple_definition:10'766 singleton_clauses:0
  1.07e-03s  0.00e+00d  [DetectDuplicateConstraintsWithDifferentEnforcements] 
  3.33e-02s  2.92e-02d  [Probe] #probed=23'548 #new_binary_clauses=1'664 
  1.38e-02s  1.86e-02d  [MaxClique] 
  3.50e-03s  0.00e+00d  [DetectDominanceRelations] 
  1.45e-02s  0.00e+00d  [PresolveToFixPoint] #num_loops=1 #num_dual_strengthening=1 
  3.47e-03s  0.00e+00d  [ProcessAtMostOneAndLinear] 
  1.24e-03s  0.00e+00d  [DetectDuplicateConstraints] 
  1.03e-03s  0.00e+00d  [DetectDuplicateConstraintsWithDifferentEnforcements] 
  6.85e-04s  3.55e-05d  [DetectDominatedLinearConstraints] #relevant_constraints=406 
  4.86e-04s  0.00e+00d  [DetectDifferentVariables] 
  6.86e-03s  5.69e-04d  [ProcessSetPPC] #relevant_constraints=32'900 #num_inclusions=21'532 
  4.84e-03s  1.09e-03d  [TransformClausesToExactlyOne] #num_amos=21'728 #num_clauses=10'766 #num_checked=10'766 
  7.14e-04s  0.00e+00d  [DetectEncodedComplexDomains] 
  5.43e-04s  1.06e-05d  [FindAlmostIdenticalLinearConstraints] #num_tested_pairs=73 
  4.74e-03s  4.87e-03d  [FindBigAtMostOneAndLinearOverlap] 
  1.39e-03s  2.17e-03d  [FindBigVerticalLinearOverlap] 
  4.60e-04s  5.89e-05d  [FindBigHorizontalLinearOverlap] #linears=406 
  2.09e-03s  1.61e-04d  [MergeClauses] 
  3.74e-03s  0.00e+00d  [DetectDominanceRelations] 
  1.10e-02s  0.00e+00d  [PresolveToFixPoint] #num_loops=1 #num_dual_strengthening=1 
  3.65e-04s  0.00e+00d  [MergeNoOverlap] 
  3.84e-04s  0.00e+00d  [MergeNoOverlap2D] 

Presolve summary:
  - 196 affine relations were detected.
  - rule 'affine: new relation' was applied 196 times.
  - rule 'at_most_one: transformed into max clique' was applied 1 time.
  - rule 'bool_or: always true' was applied 174 times.
  - rule 'linear inclusion: sparsify superset' was applied 414 times.
  - rule 'linear matrix: common vertical rectangle' was applied 19 times.
  - rule 'linear matrix: defining equation for common rectangle' was applied 19 times.
  - rule 'linear1: x in domain' was applied 29 times.
  - rule 'linear: divide by GCD' was applied 756 times.
  - rule 'linear: fixed or dup variables' was applied 196 times.
  - rule 'linear: remapped using affine relations' was applied 196 times.
  - rule 'presolve: 29 unused variables removed.' was applied 1 time.
  - rule 'presolve: iteration' was applied 3 times.
  - rule 'probing: bool_or reduced to implication' was applied 174 times.

Presolved satisfaction model '': (model_fingerprint: 0x27a37f9be3d16dec)
#Variables: 11'578 (11'172 primary variables)
  - 11'578 Booleans in [0,1]
#kBoolAnd: 812 (#enforced: 812) (#literals: 22'540)
#kBoolOr: 10'766 (#literals: 32'298)
#kLinearN: 406 (#terms: 11'774)
[Symmetry] Graph for symmetry has 45'906 nodes and 110'684 arcs.
[Symmetry] Symmetry computation done. time: 0.0349136 dtime: 0.0688652
[Symmetry] #generators: 27, average support size: 866
[Symmetry] 406 orbits on 11422 variables with sizes: 56,56,56,56,56,56,56,56,56,56,...
[Symmetry] Found orbitope of size 406 x 27

Preloading model.
The solution hint is incomplete: 812 out of 11578 non fixed variables hinted.
#Model   0.66s var:11578/11578 constraints:11984/11984

Starting search at 0.66s with 8 workers.
6 full problem subsolvers: [default_lp, max_lp_sym, no_lp, probing, quick_restart, quick_restart_no_lp]
2 first solution subsolvers: [fj, fs_random_no_lp]
2 interleaved subsolvers: [feasibility_pump, rins/rens]
2 helper subsolvers: [neighborhood_helper, synchronization_agent]

